N = 8;
H = 6;
T = 2;

avail = array3d(1..N, 1..H, 1..T, [2, 8, 9, 6, 9, 8, 7, 8, 3, 6, 4, 9, 8, 9, 1, 0, 6, 8, 5, 2, 2, 8, 3, 8, 4, 7, 2, 3, 5, 6, 1, 2, 10, 4, 0, 7, 5, 4, 8, 3, 6, 8, 1, 7, 3, 2, 3, 6, 0, 2, 0, 6, 4, 7, 2, 1, 7, 4, 3, 0, 10, 5, 9, 1, 4, 1, 9, 6, 10, 7, 9, 10, 7, 10, 7, 10, 5, 0, 10, 7, 2, 4, 0, 4, 10, 1, 6, 4, 8, 2, 8, 5, 3, 2, 6, 3]);

r = array2d(1..H, 1..T, [2, 0, 2, 3, 3, 4, 3, 4, 2, 4, 1, 1]);
